language ESSENCE' 1.0
letting lastdx=93
letting cage be [
[11,12,2,0,0, 0,0, 0,0, 0,0],
[13,9,6,0,0, 0,0, 0,0, 0,0],
[38,7,1,6,1,6,2,5,2,5,1],
[11,10,12,0,0, 0,0, 0,0, 0,0],
[1,15,6,0,0, 0,0, 0,0, 0,0],
[32,1,1,1,2,1,3,0,0, 0,0],
[15,14,14,13,14,0,0, 0,0, 0,0],
[41,8,2,7,2,7,3,7,4,8,4],
[40,10,1,11,1,12,1,13,1,14,1],
[18,11,5,10,5,10,6,0,0, 0,0],
[14,14,13,0,0, 0,0, 0,0, 0,0],
[38,11,2,11,3,11,4,0,0, 0,0],
[44,5,5,5,4,6,4,6,3,5,3],
[34,16,6,16,7,15,7,15,8,0,0],
[47,7,8,7,7,7,6,8,6,0,0],
[12,13,10,12,10,12,9,0,0, 0,0],
[7,10,15,0,0, 0,0, 0,0, 0,0],
[15,9,9,0,0, 0,0, 0,0, 0,0],
[39,4,15,4,14,5,14,5,13,0,0],
[5,6,15,0,0, 0,0, 0,0, 0,0],
[3,3,7,0,0, 0,0, 0,0, 0,0],
[44,16,2,15,2,14,2,14,3,14,4],
[26,12,11,13,11,13,12,14,12,14,11],
[29,2,10,3,10,4,10,0,0, 0,0],
[23,3,12,3,11,2,11,2,12,0,0],
[1,13,2,0,0, 0,0, 0,0, 0,0],
[17,9,1,8,1,0,0, 0,0, 0,0],
[46,16,9,16,8,16,10,15,10,0,0],
[23,12,13,13,13,0,0, 0,0, 0,0],
[5,1,16,2,16,0,0, 0,0, 0,0],
[30,1,8,1,9,2,9,0,0, 0,0],
[17,1,15,1,14,0,0, 0,0, 0,0],
[38,9,12,8,12,7,12,7,11,6,11],
[6,4,8,0,0, 0,0, 0,0, 0,0],
[39,8,7,8,8,9,8,9,7,0,0],
[11,11,15,11,14,0,0, 0,0, 0,0],
[52,14,5,13,5,13,6,12,6,12,7],
[17,12,14,12,15,0,0, 0,0, 0,0],
[10,10,7,0,0, 0,0, 0,0, 0,0],
[29,4,13,4,12,3,13,0,0, 0,0],
[33,7,14,7,13,6,13,6,14,0,0],
[39,6,6,6,5,7,5,8,5,9,5],
[14,12,5,0,0, 0,0, 0,0, 0,0],
[14,11,7,11,6,11,8,0,0, 0,0],
[17,6,10,5,10,6,9,0,0, 0,0],
[22,10,10,10,11,0,0, 0,0, 0,0],
[20,9,14,10,14,0,0, 0,0, 0,0],
[12,8,10,0,0, 0,0, 0,0, 0,0],
[4,14,6,0,0, 0,0, 0,0, 0,0],
[2,14,10,0,0, 0,0, 0,0, 0,0],
[10,16,3,0,0, 0,0, 0,0, 0,0],
[16,16,14,15,14,15,13,0,0, 0,0],
[19,14,7,13,7,0,0, 0,0, 0,0],
[19,9,3,8,3,0,0, 0,0, 0,0],
[12,4,4,0,0, 0,0, 0,0, 0,0],
[6,8,9,0,0, 0,0, 0,0, 0,0],
[45,4,6,3,6,2,6,2,7,2,8],
[11,1,10,0,0, 0,0, 0,0, 0,0],
[21,16,13,16,12,0,0, 0,0, 0,0],
[17,12,4,12,3,0,0, 0,0, 0,0],
[15,3,15,0,0, 0,0, 0,0, 0,0],
[39,9,4,10,4,10,3,10,2,9,2],
[35,15,12,15,11,16,11,0,0, 0,0],
[20,12,12,11,12,11,13,0,0, 0,0],
[32,1,5,1,4,2,4,0,0, 0,0],
[10,2,1,0,0, 0,0, 0,0, 0,0],
[33,5,15,5,16,4,16,3,16,0,0],
[16,9,10,9,11,8,11,0,0, 0,0],
[25,8,13,9,13,10,13,0,0, 0,0],
[33,2,14,2,15,3,14,0,0, 0,0],
[14,9,15,9,16,0,0, 0,0, 0,0],
[17,15,1,16,1,0,0, 0,0, 0,0],
[9,6,7,6,8,0,0, 0,0, 0,0],
[27,1,11,1,12,1,13,2,13,0,0],
[6,13,4,13,3,0,0, 0,0, 0,0],
[14,8,16,0,0, 0,0, 0,0, 0,0],
[1,3,3,0,0, 0,0, 0,0, 0,0],
[21,13,8,12,8,0,0, 0,0, 0,0],
[13,7,15,0,0, 0,0, 0,0, 0,0],
[53,15,5,15,4,15,3,16,4,16,5],
[19,1,6,1,7,0,0, 0,0, 0,0],
[34,2,2,2,3,3,2,4,2,4,3],
[13,2,5,0,0, 0,0, 0,0, 0,0],
[19,3,1,4,1,0,0, 0,0, 0,0],
[14,3,4,3,5,4,5,0,0, 0,0],
[29,4,7,5,7,5,6,0,0, 0,0],
[13,6,16,7,16,0,0, 0,0, 0,0],
[23,7,9,7,10,0,0, 0,0, 0,0],
[11,8,14,8,15,0,0, 0,0, 0,0],
[16,10,8,10,9,0,0, 0,0, 0,0],
[38,11,9,11,10,11,11,0,0, 0,0],
[25,13,9,14,9,14,8,15,9,0,0],
[11,14,15,0,0, 0,0, 0,0, 0,0],
[31,14,16,15,16,16,16,16,15,15,15]
]
